c 1 CONFIG_TOYSH_PROFILE
c 2 CONFIG_TOYSH_PROCARGS
c 3 CONFIG_DF_PEDANTIC
c 4 CONFIG_HELP
c 5 CONFIG_TOYSH_ENVVARS
c 6 CONFIG_TOYSH_LOCALS
c 7 CONFIG_MKE2FS_LABEL
c 8 CONFIG_TOYSH_FLOWCTL
c 9 CONFIG_TOYSH_JOBCTL
c 10 CONFIG_TOYSH_PIPES
c 11 CONFIG_TOYSH
c 12 CONFIG_TOYSH_TTY
c 13 CONFIG_MDEV_CONF
c 14 CONFIG_TOYSH_BUILTINS
c 15 CONFIG_TOYSH_WILDCARDS
c 16 CONFIG_CD_P
c 17 CONFIG_TOYSH_QUOTES
c 18 CONFIG_CD
c 19 CONFIG_TOYSH_ARRAYS
c 20 CONFIG_EXIT
c 21 CONFIG_READLINK_F
c 22 CONFIG_MKE2FS_EXTENDED
c 23 CONFIG_TOYBOX
c 24 CONFIG_MKE2FS_JOURNAL
c 25 CONFIG_HELP_LONG
c 26 CONFIG_MKE2FS_GEN
c 27 CONFIG_MKE2FS
c 28 CONFIG_DF
c 29 CONFIG_MDEV
c 30 CONFIG_READLINK
c 31 __Root__
p cnf 31 55
31 0
31 -11 0
31 -8 0
31 -13 0
31 -29 0
31 -12 0
31 -14 0
31 -9 0
31 -10 0
31 -30 0
31 -21 0
31 -18 0
31 -25 0
31 -4 0
31 -27 0
31 -24 0
31 -17 0
31 -2 0
31 -19 0
31 -6 0
31 -26 0
31 -22 0
31 -28 0
31 -3 0
31 -15 0
31 -20 0
31 -23 0
31 -5 0
31 -7 0
31 -16 0
31 -1 0
11 -8 0
-13 29 0
11 -12 0
-14 11 0
-9 12 0
-10 11 0
30 -21 0
-18 0
-25 4 0
27 -24 0
17 -2 0
-19 6 0
27 -26 0
-22 27 0
28 -3 0
-15 17 0
-20 0
-23 0
17 -5 0
27 -7 0
-16 0
-17 11 0
-1 12 0
-6 5 0
